g3 0 1 0	# problem d3n16R0R9d01d05
 16 8 1 0 0	# vars, constraints, objectives, ranges, eqns
 5 1	# nonlinear constraints, objectives
 0 0	# network constraints: nonlinear, linear
 16 16 16	# nonlinear vars in constraints, objectives, both
 0 0 0 1	# linear network variables; functions; arith, flags
 0 0 0 0 0	# discrete variables: binary, integer, nonlinear (b,c,o)
 128 16	# nonzeros in Jacobian, gradients
 0 0	# max name lengths: constraints, variables
 0 0 0 0 0	# common exprs: b,c,o,c1,o1
b
0 0.69 2.82
0 0.49 2.64
0 0.26 2.01
0 0.96 2.7
0 0.82 2.51
0 0.66 2.91
0 0.56 2.1
0 0.55 2.95
0 0.4 2.74
0 0.21 2.13
0 0.53 2.9
0 0.49 2.79
0 0.85 2.56
0 0.98 2.85
0 0.06 2.88
0 0.87 2.42
r
2 179.364
2 1599.48
2 177.573
2 1536.67
2 283.328
2 108.363
2 115.883
2 145.595
C0
o54
13
o2
o2
n6.9
v0
v8
o2
o2
n7.65
v1
v9
o2
o2
n6.16
v1
v10
o2
o2
n0.32
v1
v11
o2
o2
n3.5
v1
v14
o2
o2
n8.78
v3
v6
o2
o2
n1.25
v4
v9
o2
o2
n6.07
v5
v9
o2
o2
n6.39
v6
v6
o2
o2
n3.04
v7
v10
o16
o2
o2
n8.43
v8
v13
o2
o2
n1.5
v10
v15
o2
o2
n0.06
v11
v11
C1
o54
95
o2
o2
n0.41
v0
v8
o2
o2
n1.95
v1
v9
o2
o2
n6.74
v1
v10
o2
o2
n8.71
v1
v11
o2
o2
n5.53
v1
v14
o2
o2
n7.57
v3
v6
o2
o2
n3.69
v4
v9
o2
o2
n6.33
v5
v9
o16
o2
o2
n2.96
v6
v6
o2
o2
n3.52
v7
v10
o2
o2
n4.61
v8
v13
o2
o2
n2.71
v10
v15
o2
o2
n1.41
v11
v11
o2
o2
o2
n3.25
v0
v0
v0
o2
o2
o2
n6.12
v0
v0
v1
o2
o2
o2
n8.69
v0
v0
v15
o2
o2
o2
n0.37
v0
v1
v4
o2
o2
o2
n9.73
v0
v1
v5
o2
o2
o2
n3.2
v0
v1
v10
o2
o2
o2
n3.03
v0
v1
v14
o2
o2
o2
n3.11
v0
v2
v4
o2
o2
o2
n2.56
v0
v2
v12
o2
o2
o2
n2.86
v0
v3
v3
o2
o2
o2
n5.09
v0
v3
v7
o2
o2
o2
n0.96
v0
v4
v9
o16
o2
o2
o2
n6.25
v0
v6
v6
o2
o2
o2
n9
v0
v6
v7
o2
o2
o2
n8.82
v0
v7
v12
o2
o2
o2
n8.81
v0
v8
v12
o2
o2
o2
n9.83
v0
v8
v14
o2
o2
o2
n8.56
v0
v10
v15
o2
o2
o2
n7.91
v0
v11
v12
o2
o2
o2
n1.85
v0
v11
v15
o2
o2
o2
n7.64
v0
v12
v12
o2
o2
o2
n8.86
v1
v2
v10
o16
o2
o2
o2
n2.26
v1
v4
v13
o2
o2
o2
n3.6
v1
v4
v15
o2
o2
o2
n1.44
v1
v5
v14
o2
o2
o2
n6.31
v1
v7
v13
o2
o2
o2
n5.66
v1
v7
v14
o2
o2
o2
n5.15
v1
v8
v8
o2
o2
o2
n3.68
v1
v9
v10
o2
o2
o2
n6.2
v1
v10
v13
o2
o2
o2
n4.75
v1
v11
v11
o2
o2
o2
n5.7
v2
v2
v13
o2
o2
o2
n2.09
v2
v3
v5
o2
o2
o2
n3.91
v2
v3
v6
o2
o2
o2
n9.2
v2
v3
v7
o2
o2
o2
n4.27
v2
v3
v13
o2
o2
o2
n5.53
v2
v3
v15
o2
o2
o2
n7.26
v2
v4
v7
o2
o2
o2
n3.17
v2
v5
v5
o2
o2
o2
n2.75
v2
v7
v12
o2
o2
o2
n1.01
v2
v14
v15
o2
o2
o2
n0.13
v3
v4
v4
o2
o2
o2
n8
v3
v5
v6
o2
o2
o2
n0.12
v3
v5
v9
o2
o2
o2
n2.05
v3
v5
v10
o16
o2
o2
o2
n7.38
v3
v10
v14
o2
o2
o2
n6.15
v3
v12
v12
o2
o2
o2
n8.01
v4
v4
v5
o2
o2
o2
n8.23
v4
v4
v11
o16
o2
o2
o2
n0.94
v4
v4
v12
o16
o2
o2
o2
n6.4
v4
v6
v11
o2
o2
o2
n7.39
v4
v6
v15
o2
o2
o2
n6.03
v4
v9
v12
o2
o2
o2
n7.23
v4
v11
v14
o2
o2
o2
n0.3
v4
v12
v14
o2
o2
o2
n6.64
v5
v6
v15
o2
o2
o2
n0.85
v5
v7
v8
o16
o2
o2
o2
n5.77
v5
v7
v15
o2
o2
o2
n9.86
v5
v9
v9
o2
o2
o2
n0.77
v5
v10
v11
o2
o2
o2
n0.42
v5
v12
v15
o2
o2
o2
n9.05
v6
v6
v14
o16
o2
o2
o2
n6.49
v6
v7
v15
o2
o2
o2
n1.94
v6
v10
v11
o2
o2
o2
n9.26
v6
v13
v14
o2
o2
o2
n3.73
v7
v7
v15
o2
o2
o2
n1.2
v7
v9
v14
o16
o2
o2
o2
n1.24
v7
v10
v15
o2
o2
o2
n4.6
v7
v11
v13
o2
o2
o2
n2.93
v7
v14
v14
o2
o2
o2
n6.05
v7
v15
v15
o2
o2
o2
n1.63
v8
v8
v9
o16
o2
o2
o2
n3.4
v8
v9
v13
o2
o2
o2
n9.93
v8
v9
v15
o2
o2
o2
n6.84
v8
v11
v15
o2
o2
o2
n2.29
v9
v12
v13
o2
o2
o2
n0.65
v10
v10
v11
o2
o2
o2
n3.02
v11
v12
v12
o2
o2
o2
n7.06
v12
v12
v14
o2
o2
o2
n4.05
v12
v13
v14
o2
o2
o2
n9
v12
v15
v15
o2
o2
o2
n1.66
v13
v14
v15
C2
o54
13
o16
o2
o2
n5.08
v0
v8
o2
o2
n2.41
v1
v9
o2
o2
n5.62
v1
v10
o2
o2
n5.6
v1
v11
o2
o2
n5.89
v1
v14
o2
o2
n1.77
v3
v6
o2
o2
n3.55
v4
v9
o16
o2
o2
n0.61
v5
v9
o2
o2
n1.42
v6
v6
o2
o2
n8.9
v7
v10
o2
o2
n3.41
v8
v13
o2
o2
n6.47
v10
v15
o2
o2
n0.14
v11
v11
C3
o54
95
o2
o2
n5.8
v0
v8
o2
o2
n9.91
v1
v9
o2
o2
n8.44
v1
v10
o2
o2
n4.54
v1
v11
o2
o2
n5.22
v1
v14
o2
o2
n6.73
v3
v6
o2
o2
n4.54
v4
v9
o2
o2
n3.94
v5
v9
o2
o2
n8.44
v6
v6
o2
o2
n7.96
v7
v10
o2
o2
n6.19
v8
v13
o2
o2
n0.53
v10
v15
o2
o2
n7.24
v11
v11
o2
o2
o2
n2.04
v0
v0
v0
o2
o2
o2
n2.47
v0
v0
v1
o2
o2
o2
n5.05
v0
v0
v15
o2
o2
o2
n7.72
v0
v1
v4
o2
o2
o2
n8.94
v0
v1
v5
o2
o2
o2
n8.81
v0
v1
v10
o2
o2
o2
n7.53
v0
v1
v14
o2
o2
o2
n2.07
v0
v2
v4
o2
o2
o2
n5.97
v0
v2
v12
o2
o2
o2
n9.31
v0
v3
v3
o16
o2
o2
o2
n8.72
v0
v3
v7
o2
o2
o2
n1.57
v0
v4
v9
o16
o2
o2
o2
n4.89
v0
v6
v6
o2
o2
o2
n0.4
v0
v6
v7
o2
o2
o2
n2.82
v0
v7
v12
o16
o2
o2
o2
n0.91
v0
v8
v12
o16
o2
o2
o2
n0.19
v0
v8
v14
o2
o2
o2
n5.7
v0
v10
v15
o2
o2
o2
n1.39
v0
v11
v12
o2
o2
o2
n3.58
v0
v11
v15
o2
o2
o2
n8.67
v0
v12
v12
o16
o2
o2
o2
n2.21
v1
v2
v10
o2
o2
o2
n8.57
v1
v4
v13
o2
o2
o2
n8.76
v1
v4
v15
o2
o2
o2
n0.28
v1
v5
v14
o2
o2
o2
n7.62
v1
v7
v13
o2
o2
o2
n7.49
v1
v7
v14
o2
o2
o2
n9.22
v1
v8
v8
o2
o2
o2
n0.17
v1
v9
v10
o2
o2
o2
n9
v1
v10
v13
o16
o2
o2
o2
n8.03
v1
v11
v11
o16
o2
o2
o2
n0.65
v2
v2
v13
o2
o2
o2
n2.03
v2
v3
v5
o16
o2
o2
o2
n2.64
v2
v3
v6
o2
o2
o2
n5.69
v2
v3
v7
o2
o2
o2
n2.11
v2
v3
v13
o2
o2
o2
n2.61
v2
v3
v15
o2
o2
o2
n5.21
v2
v4
v7
o2
o2
o2
n1.83
v2
v5
v5
o2
o2
o2
n7.85
v2
v7
v12
o16
o2
o2
o2
n7.61
v2
v14
v15
o2
o2
o2
n6.14
v3
v4
v4
o2
o2
o2
n5.13
v3
v5
v6
o2
o2
o2
n0.27
v3
v5
v9
o16
o2
o2
o2
n8.72
v3
v5
v10
o2
o2
o2
n1.24
v3
v10
v14
o2
o2
o2
n4.22
v3
v12
v12
o2
o2
o2
n4.18
v4
v4
v5
o2
o2
o2
n1.92
v4
v4
v11
o2
o2
o2
n7.59
v4
v4
v12
o2
o2
o2
n1.71
v4
v6
v11
o16
o2
o2
o2
n2.35
v4
v6
v15
o2
o2
o2
n7.07
v4
v9
v12
o2
o2
o2
n9.69
v4
v11
v14
o2
o2
o2
n9.31
v4
v12
v14
o2
o2
o2
n2.21
v5
v6
v15
o2
o2
o2
n8.74
v5
v7
v8
o2
o2
o2
n6.81
v5
v7
v15
o2
o2
o2
n4.31
v5
v9
v9
o2
o2
o2
n3.9
v5
v10
v11
o16
o2
o2
o2
n8.26
v5
v12
v15
o2
o2
o2
n1.65
v6
v6
v14
o2
o2
o2
n7.3
v6
v7
v15
o2
o2
o2
n9.53
v6
v10
v11
o2
o2
o2
n7.05
v6
v13
v14
o2
o2
o2
n0.19
v7
v7
v15
o2
o2
o2
n1.06
v7
v9
v14
o2
o2
o2
n3.63
v7
v10
v15
o2
o2
o2
n1.19
v7
v11
v13
o2
o2
o2
n2.87
v7
v14
v14
o2
o2
o2
n0.79
v7
v15
v15
o2
o2
o2
n5
v8
v8
v9
o2
o2
o2
n7.24
v8
v9
v13
o2
o2
o2
n6.93
v8
v9
v15
o2
o2
o2
n5.55
v8
v11
v15
o2
o2
o2
n9.63
v9
v12
v13
o2
o2
o2
n9.32
v10
v10
v11
o2
o2
o2
n0.08
v11
v12
v12
o16
o2
o2
o2
n0.96
v12
v12
v14
o2
o2
o2
n5.01
v12
v13
v14
o2
o2
o2
n7.41
v12
v15
v15
o2
o2
o2
n5.35
v13
v14
v15
C4
o54
13
o2
o2
n2.17
v0
v8
o2
o2
n1.97
v1
v9
o2
o2
n5.02
v1
v10
o2
o2
n6.19
v1
v11
o2
o2
n4.42
v1
v14
o2
o2
n0.45
v3
v6
o2
o2
n5.11
v4
v9
o2
o2
n6.41
v5
v9
o2
o2
n3.76
v6
v6
o2
o2
n9.1
v7
v10
o2
o2
n9.29
v8
v13
o2
o2
n1.82
v10
v15
o2
o2
n9.67
v11
v11
C5
n0
C6
n0
C7
n0
O0 0
o54
95
o16
o2
o2
n7.3
v0
v8
o2
o2
n8.88
v1
v9
o2
o2
n2.35
v1
v10
o2
o2
n4.58
v1
v11
o2
o2
n8.99
v1
v14
o2
o2
n2.26
v3
v6
o2
o2
n2.94
v4
v9
o2
o2
n3.11
v5
v9
o16
o2
o2
n2.98
v6
v6
o2
o2
n7.96
v7
v10
o2
o2
n2.84
v8
v13
o2
o2
n6.7
v10
v15
o2
o2
n8.57
v11
v11
o2
o2
o2
n7.11
v0
v0
v0
o2
o2
o2
n0.44
v0
v0
v1
o2
o2
o2
n4.62
v0
v0
v15
o2
o2
o2
n3.52
v0
v1
v4
o2
o2
o2
n9.64
v0
v1
v5
o2
o2
o2
n5.82
v0
v1
v10
o2
o2
o2
n3.92
v0
v1
v14
o2
o2
o2
n8.32
v0
v2
v4
o2
o2
o2
n2.59
v0
v2
v12
o2
o2
o2
n5.65
v0
v3
v3
o2
o2
o2
n3.4
v0
v3
v7
o16
o2
o2
o2
n1.72
v0
v4
v9
o2
o2
o2
n9.72
v0
v6
v6
o2
o2
o2
n9.29
v0
v6
v7
o2
o2
o2
n8.84
v0
v7
v12
o2
o2
o2
n7.46
v0
v8
v12
o2
o2
o2
n2.27
v0
v8
v14
o2
o2
o2
n6.24
v0
v10
v15
o2
o2
o2
n9.37
v0
v11
v12
o2
o2
o2
n2.29
v0
v11
v15
o2
o2
o2
n1.08
v0
v12
v12
o2
o2
o2
n4.71
v1
v2
v10
o2
o2
o2
n5.21
v1
v4
v13
o2
o2
o2
n5.22
v1
v4
v15
o2
o2
o2
n9.88
v1
v5
v14
o2
o2
o2
n1.51
v1
v7
v13
o2
o2
o2
n6.64
v1
v7
v14
o2
o2
o2
n8.05
v1
v8
v8
o2
o2
o2
n9.89
v1
v9
v10
o2
o2
o2
n3.23
v1
v10
v13
o2
o2
o2
n4.13
v1
v11
v11
o2
o2
o2
n7.1
v2
v2
v13
o2
o2
o2
n5.59
v2
v3
v5
o16
o2
o2
o2
n8.56
v2
v3
v6
o2
o2
o2
n9.84
v2
v3
v7
o2
o2
o2
n6.24
v2
v3
v13
o2
o2
o2
n1.87
v2
v3
v15
o2
o2
o2
n1.98
v2
v4
v7
o16
o2
o2
o2
n0.3
v2
v5
v5
o2
o2
o2
n1.13
v2
v7
v12
o2
o2
o2
n2.25
v2
v14
v15
o2
o2
o2
n8.59
v3
v4
v4
o2
o2
o2
n0.34
v3
v5
v6
o2
o2
o2
n4.74
v3
v5
v9
o2
o2
o2
n8.54
v3
v5
v10
o16
o2
o2
o2
n0.28
v3
v10
v14
o2
o2
o2
n8.3
v3
v12
v12
o2
o2
o2
n4.1
v4
v4
v5
o2
o2
o2
n1.61
v4
v4
v11
o2
o2
o2
n3.11
v4
v4
v12
o2
o2
o2
n2.48
v4
v6
v11
o16
o2
o2
o2
n8.31
v4
v6
v15
o2
o2
o2
n3.48
v4
v9
v12
o2
o2
o2
n5.93
v4
v11
v14
o2
o2
o2
n8.82
v4
v12
v14
o2
o2
o2
n7.82
v5
v6
v15
o2
o2
o2
n0.62
v5
v7
v8
o2
o2
o2
n0.24
v5
v7
v15
o2
o2
o2
n9.86
v5
v9
v9
o2
o2
o2
n4.89
v5
v10
v11
o2
o2
o2
n8.56
v5
v12
v15
o2
o2
o2
n1.4
v6
v6
v14
o16
o2
o2
o2
n4.91
v6
v7
v15
o2
o2
o2
n5.38
v6
v10
v11
o2
o2
o2
n7.66
v6
v13
v14
o2
o2
o2
n0.92
v7
v7
v15
o2
o2
o2
n1.54
v7
v9
v14
o2
o2
o2
n1.77
v7
v10
v15
o2
o2
o2
n0.21
v7
v11
v13
o2
o2
o2
n0.16
v7
v14
v14
o2
o2
o2
n8.23
v7
v15
v15
o2
o2
o2
n7.38
v8
v8
v9
o16
o2
o2
o2
n8.75
v8
v9
v13
o2
o2
o2
n5.17
v8
v9
v15
o2
o2
o2
n8.34
v8
v11
v15
o2
o2
o2
n1.92
v9
v12
v13
o2
o2
o2
n5.64
v10
v10
v11
o2
o2
o2
n2.85
v11
v12
v12
o2
o2
o2
n5.31
v12
v12
v14
o16
o2
o2
o2
n8.19
v12
v13
v14
o2
o2
o2
n3.88
v12
v15
v15
o16
o2
o2
o2
n8.34
v13
v14
v15
k15
8
16
24
32
40
48
56
64
72
80
88
96
104
112
120
J0 16
0 4.97
1 7.4
2 0.22
3 0.47
4 8.59
5 -5
6 3.29
7 -6.12
8 3.92
9 1.8
10 7.85
11 8.36
12 2
13 8.91
14 1.51
15 3.89
J1 16
0 2.86
1 7.28
2 1.27
3 0.38
4 5.42
5 2.49
6 8
7 7.25
8 6.89
9 2.06
10 7.15
11 8.58
12 7.92
13 6.97
14 3.14
15 5.49
J2 16
0 9.34
1 2.92
2 1.91
3 4.68
4 1.94
5 2.04
6 0.3
7 7.34
8 7.51
9 0.37
10 -8.25
11 1.64
12 3.07
13 0.47
14 3.95
15 7.04
J3 16
0 9.42
1 0.87
2 9.84
3 3.24
4 5.97
5 7.39
6 1.98
7 6.08
8 1.26
9 7.27
10 -2.46
11 -0.88
12 2.27
13 6.03
14 3.96
15 0.68
J4 16
0 5.16
1 8.31
2 9
3 0.63
4 4.02
5 -0.16
6 4.81
7 1.17
8 5.24
9 6.94
10 2.27
11 7.04
12 3.91
13 1.31
14 7.84
15 9.71
J5 16
0 9.07
1 0.17
2 9.15
3 3.6
4 3.79
5 2.21
6 3.18
7 7.36
8 6.77
9 9.54
10 8.3
11 6.21
12 -8.68
13 0.08
14 3.24
15 7
J6 16
0 3.08
1 6.19
2 9.54
3 3.82
4 -0.6
5 4.43
6 3.87
7 4.67
8 2.32
9 0.21
10 7.43
11 6.41
12 6.96
13 1.17
14 4.08
15 9.42
J7 16
0 3.13
1 5.63
2 6.91
3 7.24
4 3.88
5 9.72
6 9.53
7 9.09
8 7.15
9 7.27
10 5.27
11 1.72
12 6.72
13 9.29
14 -5.8
15 3.34
G0 16
0 1.33
1 2.95
2 6.6
3 3.2
4 6.06
5 3.59
6 0.63
7 6.04
8 9.34
9 7.36
10 3.55
11 9.8
12 4.12
13 8.41
14 -0.76
15 6.97
